12
0 166 789 581 973 335 721 651 510 41 209 249 
166 0 547 205 402 539 141 81 505 705 517 401 
789 547 0 831 426 495 969 619 41 921 881 506 
581 205 831 0 995 51 657 979 509 51 189 340 
973 402 426 995 0 451 541 81 977 944 9 330 
335 539 495 51 451 0 757 931 683 35 115 311 
721 141 969 657 541 757 0 527 801 9 155 721 
651 81 619 979 81 931 527 0 792 285 221 810 
510 505 41 509 977 683 801 792 0 317 279 236 
41 705 921 51 944 35 9 285 317 0 835 336 
209 517 881 189 9 115 155 221 279 835 0 158 
249 401 506 340 330 311 721 810 236 336 158 0 
